%chk=Z:\home\leo\Desktop\inputs_ycx2\cl2cs.chk
# hf/3-21g geom=connectivity

Title Card Required

0 1
 C                  0.00000000    0.00000000   -0.56232500
 Cl                 0.00000000   -1.52420471   -1.44232500
 Cl                 0.00000000    1.52420471   -1.44232500
 S                  0.00000000    0.00000000    1.00407500

 1 2 1.0 3 1.0 4 2.0
 2
 3
 4

