%nproc=8
%mem=8GB
#opt qcisd/aug-cc-pvtz density=current nosym

f2cs

0 1
 C                  0.00000000    0.00000000   -0.56232500
 S                  0.00000000    0.00000000    1.00407500
 F                  0.00000000   -1.16913429   -1.23732500
 F                  0.00000000    1.16913429   -1.23732500

