%nproc=8
%mem=8GB
#opt qcisd/aug-cc-pvtz density=current nosym

br2co

0 1
 C                  0.00000000    0.00000000   -0.56232500
 Br                 0.00000000   -1.65410852   -1.51732500
 Br                 0.00000000    1.65410852   -1.51732500
 O                  0.00000000    0.00000000    0.69607500

