%nproc=8
%mem=8GB
#opt qcisd/aug-cc-pvtz density=current nosym

cl2co

0 1
 O                  0.00000000    0.00000000    0.69607500
 C                  0.00000000    0.00000000   -0.56232500
 Cl                 0.00000000   -1.52420471   -1.44232500
 Cl                 0.00000000    1.52420471   -1.44232500

